(set-info :smt-lib-version 2.6)
(set-logic QF_UF)
(set-info :source |
CADE ATP System competition. See http://www.cs.miami.edu/~tptp/CASC
 for more information. 

This benchmark was obtained by trying to find a finite model of a first-order 
formula (Albert Oliveras).
|)
(set-info :category "crafted")
(set-info :status unsat)
(declare-sort U 0)
(declare-fun p3 (U) Bool)
(declare-fun p1 (U U) Bool)
(declare-fun p4 (U) Bool)
(declare-fun p14 (U U U) Bool)
(declare-fun p9 (U) Bool)
(declare-fun f12 (U) U)
(declare-fun f6 (U) U)
(declare-fun f2 (U U) U)
(declare-fun f17 (U U U) U)
(declare-fun p10 (U U) Bool)
(declare-fun f16 (U U U) U)
(declare-fun f7 (U) U)
(declare-fun f13 (U U U) U)
(declare-fun c18 () U)
(declare-fun f11 (U) U)
(declare-fun f5 (U) U)
(declare-fun c8 () U)
(declare-fun p15 (U U) Bool)
(declare-fun c_0 () U)
(declare-fun c_1 () U)
(assert (let ((_let_1 (f5 c_1))) (let ((_let_2 (f5 c_0))) (let ((_let_3 (f11 c_1))) (let ((_let_4 (f11 c_0))) (let ((_let_5 (f7 c_1))) (let ((_let_6 (f7 c_0))) (let ((_let_7 (f6 c_1))) (let ((_let_8 (f6 c_0))) (let ((_let_9 (f12 c_1))) (let ((_let_10 (f12 c_0))) (let ((_let_11 (f2 c_1 c_1))) (let ((_let_12 (f2 c_1 c_0))) (let ((_let_13 (f2 c_0 c_1))) (let ((_let_14 (f2 c_0 c_0))) (let ((_let_15 (f13 c_1 c_1 c_1))) (let ((_let_16 (f13 c_1 c_1 c_0))) (let ((_let_17 (f13 c_1 c_0 c_1))) (let ((_let_18 (f13 c_1 c_0 c_0))) (let ((_let_19 (f13 c_0 c_1 c_1))) (let ((_let_20 (f13 c_0 c_1 c_0))) (let ((_let_21 (f13 c_0 c_0 c_1))) (let ((_let_22 (f13 c_0 c_0 c_0))) (let ((_let_23 (f16 c_1 c_1 c_1))) (let ((_let_24 (f16 c_1 c_1 c_0))) (let ((_let_25 (f16 c_1 c_0 c_1))) (let ((_let_26 (f16 c_1 c_0 c_0))) (let ((_let_27 (f16 c_0 c_1 c_1))) (let ((_let_28 (f16 c_0 c_1 c_0))) (let ((_let_29 (f16 c_0 c_0 c_1))) (let ((_let_30 (f16 c_0 c_0 c_0))) (let ((_let_31 (f17 c_1 c_1 c_1))) (let ((_let_32 (f17 c_1 c_1 c_0))) (let ((_let_33 (f17 c_1 c_0 c_1))) (let ((_let_34 (f17 c_1 c_0 c_0))) (let ((_let_35 (f17 c_0 c_1 c_1))) (let ((_let_36 (f17 c_0 c_1 c_0))) (let ((_let_37 (f17 c_0 c_0 c_1))) (let ((_let_38 (f17 c_0 c_0 c_0))) (let ((_let_39 (not (p9 c_1)))) (let ((_let_40 (not (p9 c_0)))) (let ((_let_41 (not (p3 c_1)))) (let ((_let_42 (p1 c_1 c_1))) (let ((_let_43 (not _let_42))) (let ((_let_44 (not (p4 c_1)))) (let ((_let_45 (not (p10 c_1 c_1)))) (let ((_let_46 (p15 c_1 c_1))) (let ((_let_47 (= c_1 c_1))) (let ((_let_48 (not (p3 c_0)))) (let ((_let_49 (p1 c_0 c_1))) (let ((_let_50 (not _let_49))) (let ((_let_51 (not (p10 c_0 c_1)))) (let ((_let_52 (= c_0 c_1))) (let ((_let_53 (p1 c_1 c_0))) (let ((_let_54 (not _let_53))) (let ((_let_55 (not (p4 c_0)))) (let ((_let_56 (p15 c_0 c_1))) (let ((_let_57 (p1 c_0 c_0))) (let ((_let_58 (not _let_57))) (let ((_let_59 (= c_1 c_0))) (let ((_let_60 (= c_0 c_0))) (let ((_let_61 (not (p10 c_1 c_0)))) (let ((_let_62 (p15 c_1 c_0))) (let ((_let_63 (not (p10 c_0 c_0)))) (let ((_let_64 (p15 c_0 c_0))) (let ((_let_65 (p10 c_1 _let_15))) (let ((_let_66 (p14 c_1 c_1 c_1))) (let ((_let_67 (p10 c_1 _let_16))) (let ((_let_68 (p14 c_1 c_1 c_0))) (let ((_let_69 (p14 c_1 c_0 c_1))) (let ((_let_70 (p10 c_0 _let_18))) (let ((_let_71 (p14 c_1 c_0 c_0))) (let ((_let_72 (p10 c_1 _let_19))) (let ((_let_73 (p14 c_0 c_1 c_1))) (let ((_let_74 (p14 c_0 c_1 c_0))) (let ((_let_75 (p10 c_0 _let_21))) (let ((_let_76 (p14 c_0 c_0 c_1))) (let ((_let_77 (p10 c_0 _let_22))) (let ((_let_78 (p14 c_0 c_0 c_0))) (let ((_let_79 (not _let_66))) (let ((_let_80 (p1 c_1 _let_31))) (let ((_let_81 (not _let_73))) (let ((_let_82 (not _let_68))) (let ((_let_83 (p1 c_1 _let_32))) (let ((_let_84 (not _let_74))) (let ((_let_85 (p1 c_0 _let_36))) (let ((_let_86 (not _let_69))) (let ((_let_87 (p1 c_1 _let_33))) (let ((_let_88 (not _let_76))) (let ((_let_89 (p1 c_0 _let_37))) (let ((_let_90 (not _let_71))) (let ((_let_91 (not _let_78))) (let ((_let_92 (p1 c_0 _let_38))) (let ((_let_93 (p1 c_1 _let_11))) (let ((_let_94 (p1 c_0 _let_14))) (let ((_let_95 (p10 _let_23 c_1))) (let ((_let_96 (p10 _let_29 c_0))) (let ((_let_97 (p10 _let_24 c_1))) (let ((_let_98 (p10 _let_30 c_0))) (let ((_let_99 (p1 c_1 _let_35))) (let ((_let_100 (p1 c_0 _let_34))) (let ((_let_101 (not (p10 c_1 c18)))) (let ((_let_102 (not (p10 c_0 c18)))) (let ((_let_103 (p10 c_0 _let_20))) (let ((_let_104 (p10 c_1 _let_17))) (and (distinct c_0 c_1) (or _let_48 _let_58 _let_60 _let_57 _let_48 _let_48 _let_60 _let_58 _let_55 _let_60 _let_91) (or _let_48 _let_58 _let_52 _let_53 _let_48 _let_41 _let_52 _let_58 _let_55 _let_60 _let_88) (or _let_48 _let_50 _let_60 _let_49 _let_48 _let_48 _let_60 _let_50 _let_44 _let_60 _let_91) (or _let_48 _let_50 _let_52 _let_42 _let_48 _let_41 _let_52 _let_50 _let_44 _let_60 _let_88) (or _let_48 _let_54 _let_59 _let_57 _let_41 _let_48 _let_60 _let_58 _let_55 _let_59 _let_90) (or _let_48 _let_54 _let_47 _let_53 _let_41 _let_41 _let_52 _let_58 _let_55 _let_59 _let_86) (or _let_48 _let_43 _let_59 _let_49 _let_41 _let_48 _let_60 _let_50 _let_44 _let_59 _let_90) (or _let_48 _let_43 _let_47 _let_42 _let_41 _let_41 _let_52 _let_50 _let_44 _let_59 _let_86) (or _let_41 _let_58 _let_60 _let_57 _let_48 _let_48 _let_59 _let_54 _let_55 _let_52 _let_84) (or _let_41 _let_58 _let_52 _let_53 _let_48 _let_41 _let_47 _let_54 _let_55 _let_52 _let_81) (or _let_41 _let_50 _let_60 _let_49 _let_48 _let_48 _let_59 _let_43 _let_44 _let_52 _let_84) (or _let_41 _let_50 _let_52 _let_42 _let_48 _let_41 _let_47 _let_43 _let_44 _let_52 _let_81) (or _let_41 _let_54 _let_59 _let_57 _let_41 _let_48 _let_59 _let_54 _let_55 _let_47 _let_82) (or _let_41 _let_54 _let_47 _let_53 _let_41 _let_41 _let_47 _let_54 _let_55 _let_47 _let_79) (or _let_41 _let_43 _let_59 _let_49 _let_41 _let_48 _let_59 _let_43 _let_44 _let_47 _let_82) (or _let_41 _let_43 _let_47 _let_42 _let_41 _let_41 _let_47 _let_43 _let_44 _let_47 _let_79) (or _let_40 (p3 _let_10)) (or _let_39 (p3 _let_9)) (or _let_55 (p1 _let_8 c_0)) (or _let_44 (p1 _let_7 c_1)) (or _let_48 (p4 _let_14) _let_60 _let_48) (or _let_48 (p4 _let_13) _let_52 _let_41) (or _let_41 (p4 _let_12) _let_59 _let_48) (or _let_41 (p4 _let_11) _let_47 _let_41) (or _let_55 _let_48 _let_60 _let_48 _let_60 _let_58 _let_58 _let_58 _let_55 _let_58) (or _let_55 _let_48 _let_60 _let_41 _let_52 _let_54 _let_58 _let_54 _let_55 _let_58) (or _let_55 _let_48 _let_59 _let_48 _let_60 _let_58 _let_50 _let_50 _let_44 _let_58) (or _let_55 _let_48 _let_59 _let_41 _let_52 _let_54 _let_50 _let_43 _let_44 _let_58) (or _let_55 _let_41 _let_60 _let_48 _let_59 _let_58 _let_54 _let_58 _let_55 _let_54) (or _let_55 _let_41 _let_60 _let_41 _let_47 _let_54 _let_54 _let_54 _let_55 _let_54) (or _let_55 _let_41 _let_59 _let_48 _let_59 _let_58 _let_43 _let_50 _let_44 _let_54) (or _let_55 _let_41 _let_59 _let_41 _let_47 _let_54 _let_43 _let_43 _let_44 _let_54) (or _let_44 _let_48 _let_52 _let_48 _let_60 _let_50 _let_58 _let_58 _let_55 _let_50) (or _let_44 _let_48 _let_52 _let_41 _let_52 _let_43 _let_58 _let_54 _let_55 _let_50) (or _let_44 _let_48 _let_47 _let_48 _let_60 _let_50 _let_50 _let_50 _let_44 _let_50) (or _let_44 _let_48 _let_47 _let_41 _let_52 _let_43 _let_50 _let_43 _let_44 _let_50) (or _let_44 _let_41 _let_52 _let_48 _let_59 _let_50 _let_54 _let_58 _let_55 _let_43) (or _let_44 _let_41 _let_52 _let_41 _let_47 _let_43 _let_54 _let_54 _let_55 _let_43) (or _let_44 _let_41 _let_47 _let_48 _let_59 _let_50 _let_43 _let_50 _let_44 _let_43) (or _let_44 _let_41 _let_47 _let_41 _let_47 _let_43 _let_43 _let_43 _let_44 _let_43) (or _let_60 _let_48 _let_94 _let_48) (or _let_52 _let_41 (p1 c_1 _let_13) _let_48) (or _let_59 _let_48 (p1 c_0 _let_12) _let_41) (or _let_47 _let_41 _let_93 _let_41) (or _let_60 _let_48 (p4 _let_38) _let_60 _let_48 _let_91 _let_48 _let_60) (or _let_60 _let_48 (p4 _let_36) _let_52 _let_41 _let_84 _let_48 _let_59) (or _let_52 _let_41 (p4 _let_37) _let_60 _let_48 _let_88 _let_48 _let_52) (or _let_52 _let_41 (p4 _let_35) _let_52 _let_41 _let_81 _let_48 _let_47) (or _let_59 _let_48 (p4 _let_34) _let_59 _let_48 _let_90 _let_41 _let_60) (or _let_59 _let_48 (p4 _let_32) _let_47 _let_41 _let_82 _let_41 _let_59) (or _let_47 _let_41 (p4 _let_33) _let_59 _let_48 _let_86 _let_41 _let_52) (or _let_47 _let_41 (p4 _let_31) _let_47 _let_41 _let_79 _let_41 _let_47) (or _let_60 _let_60 _let_60 _let_78 _let_48 _let_58 _let_58 _let_48 _let_55 _let_48 _let_58) (or _let_60 _let_60 _let_60 _let_78 _let_48 _let_50 _let_50 _let_48 _let_44 _let_48 _let_50) (or _let_60 _let_59 _let_52 _let_74 _let_48 _let_54 _let_58 _let_48 _let_55 _let_41 _let_58) (or _let_60 _let_59 _let_52 _let_74 _let_48 _let_43 _let_50 _let_48 _let_44 _let_41 _let_50) (or _let_52 _let_52 _let_60 _let_76 _let_48 _let_58 _let_58 _let_41 _let_55 _let_48 _let_54) (or _let_52 _let_52 _let_60 _let_76 _let_48 _let_50 _let_50 _let_41 _let_44 _let_48 _let_43) (or _let_52 _let_47 _let_52 _let_73 _let_48 _let_54 _let_58 _let_41 _let_55 _let_41 _let_54) (or _let_52 _let_47 _let_52 _let_73 _let_48 _let_43 _let_50 _let_41 _let_44 _let_41 _let_43) (or _let_59 _let_60 _let_59 _let_71 _let_41 _let_58 _let_54 _let_48 _let_55 _let_48 _let_58) (or _let_59 _let_60 _let_59 _let_71 _let_41 _let_50 _let_43 _let_48 _let_44 _let_48 _let_50) (or _let_59 _let_59 _let_47 _let_68 _let_41 _let_54 _let_54 _let_48 _let_55 _let_41 _let_58) (or _let_59 _let_59 _let_47 _let_68 _let_41 _let_43 _let_43 _let_48 _let_44 _let_41 _let_50) (or _let_47 _let_52 _let_59 _let_69 _let_41 _let_58 _let_54 _let_41 _let_55 _let_48 _let_54) (or _let_47 _let_52 _let_59 _let_69 _let_41 _let_50 _let_43 _let_41 _let_44 _let_48 _let_43) (or _let_47 _let_47 _let_47 _let_66 _let_41 _let_54 _let_54 _let_41 _let_55 _let_41 _let_54) (or _let_47 _let_47 _let_47 _let_66 _let_41 _let_43 _let_43 _let_41 _let_44 _let_41 _let_43) (or _let_40 _let_63 _let_48 (p3 _let_30) _let_60 _let_40 _let_63) (or _let_40 _let_51 _let_48 (p3 _let_28) _let_52 _let_39 _let_63) (or _let_40 _let_61 _let_41 (p3 _let_29) _let_60 _let_40 _let_61) (or _let_40 _let_45 _let_41 (p3 _let_27) _let_52 _let_39 _let_61) (or _let_39 _let_63 _let_48 (p3 _let_26) _let_59 _let_40 _let_51) (or _let_39 _let_51 _let_48 (p3 _let_24) _let_47 _let_39 _let_51) (or _let_39 _let_61 _let_41 (p3 _let_25) _let_59 _let_40 _let_45) (or _let_39 _let_45 _let_41 (p3 _let_23) _let_47 _let_39 _let_45) (or _let_55 (not (p1 _let_6 c_0))) (or _let_44 (not (p1 _let_5 c_1))) (or _let_48 _let_60 _let_77 _let_48 _let_78 _let_60 _let_48 _let_60) (or _let_48 _let_60 (p10 c_1 _let_18) _let_41 _let_71 _let_59 _let_48 _let_59) (or _let_48 _let_59 _let_103 _let_48 _let_74 _let_52 _let_41 _let_60) (or _let_48 _let_59 _let_67 _let_41 _let_68 _let_47 _let_41 _let_59) (or _let_41 _let_52 _let_75 _let_48 _let_76 _let_60 _let_48 _let_52) (or _let_41 _let_52 _let_104 _let_41 _let_69 _let_59 _let_48 _let_47) (or _let_41 _let_47 (p10 c_0 _let_19) _let_48 _let_73 _let_52 _let_41 _let_52) (or _let_41 _let_47 _let_65 _let_41 _let_66 _let_47 _let_41 _let_47) (p9 c18) (or _let_60 _let_48 _let_60 _let_60 _let_78 _let_48 _let_77 _let_48) (or _let_60 _let_41 _let_59 _let_59 _let_71 _let_48 _let_70 _let_48) (or _let_52 _let_48 _let_60 _let_52 _let_76 _let_48 (p10 c_1 _let_21) _let_41) (or _let_52 _let_41 _let_59 _let_47 _let_69 _let_48 _let_104 _let_41) (or _let_59 _let_48 _let_52 _let_60 _let_74 _let_41 _let_103 _let_48) (or _let_59 _let_41 _let_47 _let_59 _let_68 _let_41 (p10 c_0 _let_16) _let_48) (or _let_47 _let_48 _let_52 _let_52 _let_73 _let_41 _let_72 _let_41) (or _let_47 _let_41 _let_47 _let_47 _let_66 _let_41 _let_65 _let_41) (or _let_48 _let_60 _let_48 _let_102 _let_78 _let_48 _let_102 _let_102 _let_60 _let_60) (or _let_48 _let_60 _let_41 _let_101 _let_76 _let_48 _let_102 _let_102 _let_52 _let_52) (or _let_48 _let_59 _let_48 _let_102 _let_71 _let_41 _let_102 _let_101 _let_59 _let_60) (or _let_48 _let_59 _let_41 _let_101 _let_69 _let_41 _let_102 _let_101 _let_47 _let_52) (or _let_41 _let_52 _let_48 _let_102 _let_74 _let_48 _let_101 _let_102 _let_60 _let_59) (or _let_41 _let_52 _let_41 _let_101 _let_73 _let_48 _let_101 _let_102 _let_52 _let_47) (or _let_41 _let_47 _let_48 _let_102 _let_68 _let_41 _let_101 _let_101 _let_59 _let_59) (or _let_41 _let_47 _let_41 _let_101 _let_66 _let_41 _let_101 _let_101 _let_47 _let_47) (or _let_40 (p10 _let_4 c_0)) (or _let_39 (p10 _let_3 c_1)) (or _let_55 (p1 _let_2 c_0)) (or _let_44 (p1 _let_1 c_1)) (or _let_63 _let_48 _let_98 _let_60 _let_63 _let_40 _let_40) (or _let_63 _let_48 (p10 _let_26 c_1) _let_59 _let_51 _let_39 _let_40) (or _let_51 _let_48 (p10 _let_28 c_0) _let_52 _let_63 _let_40 _let_39) (or _let_51 _let_48 _let_97 _let_47 _let_51 _let_39 _let_39) (or _let_61 _let_41 _let_96 _let_60 _let_61 _let_40 _let_40) (or _let_61 _let_41 (p10 _let_25 c_1) _let_59 _let_45 _let_39 _let_40) (or _let_45 _let_41 (p10 _let_27 c_0) _let_52 _let_61 _let_40 _let_39) (or _let_45 _let_41 _let_95 _let_47 _let_45 _let_39 _let_39) (or _let_55 (not (= _let_2 _let_8))) (or _let_44 (not (= _let_1 _let_7))) (or _let_55 (p3 _let_2)) (or _let_44 (p3 _let_1)) (or _let_60 _let_48 _let_92 _let_48 _let_91 _let_60 _let_48 _let_60) (or _let_60 _let_48 _let_100 _let_48 _let_90 _let_59 _let_41 _let_59) (or _let_52 _let_48 _let_89 _let_41 _let_88 _let_60 _let_48 _let_52) (or _let_52 _let_48 (p1 c_0 _let_33) _let_41 _let_86 _let_59 _let_41 _let_47) (or _let_59 _let_41 (p1 c_1 _let_36) _let_48 _let_84 _let_52 _let_48 _let_60) (or _let_59 _let_41 _let_83 _let_48 _let_82 _let_47 _let_41 _let_59) (or _let_47 _let_41 _let_99 _let_41 _let_81 _let_52 _let_48 _let_52) (or _let_47 _let_41 _let_80 _let_41 _let_79 _let_47 _let_41 _let_47) (or _let_48 _let_48 _let_60 _let_60 (p9 _let_22) _let_60 _let_48 _let_78) (or _let_48 _let_48 _let_59 _let_60 (p9 _let_20) _let_52 _let_41 _let_74) (or _let_48 _let_41 _let_52 _let_52 (p9 _let_21) _let_60 _let_48 _let_76) (or _let_48 _let_41 _let_47 _let_52 (p9 _let_19) _let_52 _let_41 _let_73) (or _let_41 _let_48 _let_60 _let_59 (p9 _let_18) _let_59 _let_48 _let_71) (or _let_41 _let_48 _let_59 _let_59 (p9 _let_16) _let_47 _let_41 _let_68) (or _let_41 _let_41 _let_52 _let_47 (p9 _let_17) _let_59 _let_48 _let_69) (or _let_41 _let_41 _let_47 _let_47 (p9 _let_15) _let_47 _let_41 _let_66) (or _let_92 _let_91 _let_48 _let_60 _let_48 _let_48 _let_60 _let_60) (or _let_85 _let_84 _let_48 _let_52 _let_41 _let_48 _let_59 _let_60) (or _let_100 _let_90 _let_41 _let_59 _let_48 _let_48 _let_60 _let_59) (or (p1 c_0 _let_32) _let_82 _let_41 _let_47 _let_41 _let_48 _let_59 _let_59) (or (p1 c_1 _let_37) _let_88 _let_48 _let_60 _let_48 _let_41 _let_52 _let_52) (or _let_99 _let_81 _let_48 _let_52 _let_41 _let_41 _let_47 _let_52) (or _let_87 _let_86 _let_41 _let_59 _let_48 _let_41 _let_52 _let_47) (or _let_80 _let_79 _let_41 _let_47 _let_41 _let_41 _let_47 _let_47) (or _let_63 _let_60 _let_40 _let_40 _let_98 _let_63 _let_48) (or _let_63 _let_59 _let_40 _let_39 (p10 _let_26 c_0) _let_51 _let_48) (or _let_51 _let_52 _let_39 _let_40 (p10 _let_28 c_1) _let_63 _let_48) (or _let_51 _let_47 _let_39 _let_39 _let_97 _let_51 _let_48) (or _let_61 _let_60 _let_40 _let_40 _let_96 _let_61 _let_41) (or _let_61 _let_59 _let_40 _let_39 (p10 _let_25 c_0) _let_45 _let_41) (or _let_45 _let_52 _let_39 _let_40 (p10 _let_27 c_1) _let_61 _let_41) (or _let_45 _let_47 _let_39 _let_39 _let_95 _let_45 _let_41) (p4 c8) (or _let_48 _let_60 _let_94 _let_48) (or _let_48 _let_59 (p1 c_1 _let_12) _let_41) (or _let_41 _let_52 (p1 c_0 _let_13) _let_48) (or _let_41 _let_47 _let_93 _let_41) (or _let_60 _let_60 _let_48 _let_92 _let_91 _let_60 _let_48 _let_48) (or _let_60 _let_59 _let_48 (p1 c_1 _let_34) _let_90 _let_59 _let_48 _let_41) (or _let_52 _let_52 _let_48 _let_89 _let_88 _let_60 _let_41 _let_48) (or _let_52 _let_47 _let_48 _let_87 _let_86 _let_59 _let_41 _let_41) (or _let_59 _let_60 _let_41 _let_85 _let_84 _let_52 _let_48 _let_48) (or _let_59 _let_59 _let_41 _let_83 _let_82 _let_47 _let_48 _let_41) (or _let_47 _let_52 _let_41 (p1 c_0 _let_35) _let_81 _let_52 _let_41 _let_48) (or _let_47 _let_47 _let_41 _let_80 _let_79 _let_47 _let_41 _let_41) (or _let_78 _let_48 _let_63 _let_63 _let_40 _let_63 _let_63 _let_60 _let_48 _let_40 _let_63 _let_60 _let_48 _let_60 _let_60 _let_63) (or _let_78 _let_48 _let_63 _let_51 _let_40 _let_63 _let_51 _let_52 _let_48 _let_39 _let_51 _let_60 _let_48 _let_60 _let_60 _let_63) (or _let_78 _let_48 _let_51 _let_63 _let_39 _let_51 _let_63 _let_59 _let_48 _let_40 _let_63 _let_60 _let_48 _let_60 _let_60 _let_51) (or _let_78 _let_48 _let_51 _let_51 _let_39 _let_51 _let_51 _let_47 _let_48 _let_39 _let_51 _let_60 _let_48 _let_60 _let_60 _let_51) (or _let_76 _let_48 _let_61 _let_63 _let_40 _let_63 _let_61 _let_60 _let_41 _let_40 _let_63 _let_52 _let_48 _let_52 _let_60 _let_63) (or _let_76 _let_48 _let_61 _let_51 _let_40 _let_63 _let_45 _let_52 _let_41 _let_39 _let_51 _let_52 _let_48 _let_52 _let_60 _let_63) (or _let_76 _let_48 _let_45 _let_63 _let_39 _let_51 _let_61 _let_59 _let_41 _let_40 _let_63 _let_52 _let_48 _let_52 _let_60 _let_51) (or _let_76 _let_48 _let_45 _let_51 _let_39 _let_51 _let_45 _let_47 _let_41 _let_39 _let_51 _let_52 _let_48 _let_52 _let_60 _let_51) (or _let_74 _let_41 _let_63 _let_63 _let_40 _let_63 _let_63 _let_60 _let_48 _let_40 _let_61 _let_59 _let_48 _let_60 _let_52 _let_61) (or _let_74 _let_41 _let_63 _let_51 _let_40 _let_63 _let_51 _let_52 _let_48 _let_39 _let_45 _let_59 _let_48 _let_60 _let_52 _let_61) (or _let_74 _let_41 _let_51 _let_63 _let_39 _let_51 _let_63 _let_59 _let_48 _let_40 _let_61 _let_59 _let_48 _let_60 _let_52 _let_45) (or _let_74 _let_41 _let_51 _let_51 _let_39 _let_51 _let_51 _let_47 _let_48 _let_39 _let_45 _let_59 _let_48 _let_60 _let_52 _let_45) (or _let_73 _let_41 _let_61 _let_63 _let_40 _let_63 _let_61 _let_60 _let_41 _let_40 _let_61 _let_47 _let_48 _let_52 _let_52 _let_61) (or _let_73 _let_41 _let_61 _let_51 _let_40 _let_63 _let_45 _let_52 _let_41 _let_39 _let_45 _let_47 _let_48 _let_52 _let_52 _let_61) (or _let_73 _let_41 _let_45 _let_63 _let_39 _let_51 _let_61 _let_59 _let_41 _let_40 _let_61 _let_47 _let_48 _let_52 _let_52 _let_45) (or _let_73 _let_41 _let_45 _let_51 _let_39 _let_51 _let_45 _let_47 _let_41 _let_39 _let_45 _let_47 _let_48 _let_52 _let_52 _let_45) (or _let_71 _let_48 _let_63 _let_61 _let_40 _let_61 _let_63 _let_60 _let_48 _let_40 _let_63 _let_60 _let_41 _let_59 _let_59 _let_63) (or _let_71 _let_48 _let_63 _let_45 _let_40 _let_61 _let_51 _let_52 _let_48 _let_39 _let_51 _let_60 _let_41 _let_59 _let_59 _let_63) (or _let_71 _let_48 _let_51 _let_61 _let_39 _let_45 _let_63 _let_59 _let_48 _let_40 _let_63 _let_60 _let_41 _let_59 _let_59 _let_51) (or _let_71 _let_48 _let_51 _let_45 _let_39 _let_45 _let_51 _let_47 _let_48 _let_39 _let_51 _let_60 _let_41 _let_59 _let_59 _let_51) (or _let_69 _let_48 _let_61 _let_61 _let_40 _let_61 _let_61 _let_60 _let_41 _let_40 _let_63 _let_52 _let_41 _let_47 _let_59 _let_63) (or _let_69 _let_48 _let_61 _let_45 _let_40 _let_61 _let_45 _let_52 _let_41 _let_39 _let_51 _let_52 _let_41 _let_47 _let_59 _let_63) (or _let_69 _let_48 _let_45 _let_61 _let_39 _let_45 _let_61 _let_59 _let_41 _let_40 _let_63 _let_52 _let_41 _let_47 _let_59 _let_51) (or _let_69 _let_48 _let_45 _let_45 _let_39 _let_45 _let_45 _let_47 _let_41 _let_39 _let_51 _let_52 _let_41 _let_47 _let_59 _let_51) (or _let_68 _let_41 _let_63 _let_61 _let_40 _let_61 _let_63 _let_60 _let_48 _let_40 _let_61 _let_59 _let_41 _let_59 _let_47 _let_61) (or _let_68 _let_41 _let_63 _let_45 _let_40 _let_61 _let_51 _let_52 _let_48 _let_39 _let_45 _let_59 _let_41 _let_59 _let_47 _let_61) (or _let_68 _let_41 _let_51 _let_61 _let_39 _let_45 _let_63 _let_59 _let_48 _let_40 _let_61 _let_59 _let_41 _let_59 _let_47 _let_45) (or _let_68 _let_41 _let_51 _let_45 _let_39 _let_45 _let_51 _let_47 _let_48 _let_39 _let_45 _let_59 _let_41 _let_59 _let_47 _let_45) (or _let_66 _let_41 _let_61 _let_61 _let_40 _let_61 _let_61 _let_60 _let_41 _let_40 _let_61 _let_47 _let_41 _let_47 _let_47 _let_61) (or _let_66 _let_41 _let_61 _let_45 _let_40 _let_61 _let_45 _let_52 _let_41 _let_39 _let_45 _let_47 _let_41 _let_47 _let_47 _let_61) (or _let_66 _let_41 _let_45 _let_61 _let_39 _let_45 _let_61 _let_59 _let_41 _let_40 _let_61 _let_47 _let_41 _let_47 _let_47 _let_45) (or _let_66 _let_41 _let_45 _let_45 _let_39 _let_45 _let_45 _let_47 _let_41 _let_39 _let_45 _let_47 _let_41 _let_47 _let_47 _let_45) (or _let_60 _let_48 _let_60 _let_78 _let_48 _let_48 _let_60 _let_77) (or _let_60 _let_48 _let_52 _let_76 _let_48 _let_41 _let_52 _let_75) (or _let_52 _let_48 _let_59 _let_74 _let_41 _let_48 _let_60 (p10 c_1 _let_20)) (or _let_52 _let_48 _let_47 _let_73 _let_41 _let_41 _let_52 _let_72) (or _let_59 _let_41 _let_60 _let_71 _let_48 _let_48 _let_59 _let_70) (or _let_59 _let_41 _let_52 _let_69 _let_48 _let_41 _let_47 (p10 c_0 _let_17)) (or _let_47 _let_41 _let_59 _let_68 _let_41 _let_48 _let_59 _let_67) (or _let_47 _let_41 _let_47 _let_66 _let_41 _let_41 _let_47 _let_65) (or (p3 _let_6) _let_55) (or (p3 _let_5) _let_44) (or (not (= c_0 _let_30)) _let_63 _let_63 _let_40 _let_48 _let_60 _let_40) (or (not (= c_0 _let_28)) _let_63 _let_51 _let_40 _let_48 _let_52 _let_39) (or (not (= c_0 _let_26)) _let_51 _let_63 _let_39 _let_48 _let_59 _let_40) (or (not (= c_0 _let_24)) _let_51 _let_51 _let_39 _let_48 _let_47 _let_39) (or (not (= c_1 _let_29)) _let_61 _let_61 _let_40 _let_41 _let_60 _let_40) (or (not (= c_1 _let_27)) _let_61 _let_45 _let_40 _let_41 _let_52 _let_39) (or (not (= c_1 _let_25)) _let_45 _let_61 _let_39 _let_41 _let_59 _let_40) (or (not (= c_1 _let_23)) _let_45 _let_45 _let_39 _let_41 _let_47 _let_39) (or (p3 _let_8) _let_55) (or (p3 _let_7) _let_44) (or _let_40 _let_58 _let_60 _let_63 _let_64 _let_63 _let_48 _let_55 _let_58 _let_48) (or _let_40 _let_58 _let_59 _let_63 _let_64 _let_61 _let_48 _let_55 _let_54 _let_41) (or _let_40 _let_50 _let_60 _let_63 _let_62 _let_63 _let_48 _let_44 _let_50 _let_48) (or _let_40 _let_50 _let_59 _let_63 _let_62 _let_61 _let_48 _let_44 _let_43 _let_41) (or _let_40 _let_54 _let_52 _let_61 _let_64 _let_63 _let_41 _let_55 _let_58 _let_48) (or _let_40 _let_54 _let_47 _let_61 _let_64 _let_61 _let_41 _let_55 _let_54 _let_41) (or _let_40 _let_43 _let_52 _let_61 _let_62 _let_63 _let_41 _let_44 _let_50 _let_48) (or _let_40 _let_43 _let_47 _let_61 _let_62 _let_61 _let_41 _let_44 _let_43 _let_41) (or _let_39 _let_58 _let_60 _let_51 _let_56 _let_51 _let_48 _let_55 _let_58 _let_48) (or _let_39 _let_58 _let_59 _let_51 _let_56 _let_45 _let_48 _let_55 _let_54 _let_41) (or _let_39 _let_50 _let_60 _let_51 _let_46 _let_51 _let_48 _let_44 _let_50 _let_48) (or _let_39 _let_50 _let_59 _let_51 _let_46 _let_45 _let_48 _let_44 _let_43 _let_41) (or _let_39 _let_54 _let_52 _let_45 _let_56 _let_51 _let_41 _let_55 _let_58 _let_48) (or _let_39 _let_54 _let_47 _let_45 _let_56 _let_45 _let_41 _let_55 _let_54 _let_41) (or _let_39 _let_43 _let_52 _let_45 _let_46 _let_51 _let_41 _let_44 _let_50 _let_48) (or _let_39 _let_43 _let_47 _let_45 _let_46 _let_45 _let_41 _let_44 _let_43 _let_41) (or _let_40 (p3 _let_4)) (or _let_39 (p3 _let_3)) (or _let_40 (not (p10 _let_10 c_0))) (or _let_39 (not (p10 _let_9 c_1))) (or (= _let_38 c_0) (= _let_38 c_1)) (or (= _let_37 c_0) (= _let_37 c_1)) (or (= _let_36 c_0) (= _let_36 c_1)) (or (= _let_35 c_0) (= _let_35 c_1)) (or (= _let_34 c_0) (= _let_34 c_1)) (or (= _let_33 c_0) (= _let_33 c_1)) (or (= _let_32 c_0) (= _let_32 c_1)) (or (= _let_31 c_0) (= _let_31 c_1)) (or (= _let_30 c_0) (= _let_30 c_1)) (or (= _let_29 c_0) (= _let_29 c_1)) (or (= _let_28 c_0) (= _let_28 c_1)) (or (= _let_27 c_0) (= _let_27 c_1)) (or (= _let_26 c_0) (= _let_26 c_1)) (or (= _let_25 c_0) (= _let_25 c_1)) (or (= _let_24 c_0) (= _let_24 c_1)) (or (= _let_23 c_0) (= _let_23 c_1)) (or (= _let_22 c_0) (= _let_22 c_1)) (or (= _let_21 c_0) (= _let_21 c_1)) (or (= _let_20 c_0) (= _let_20 c_1)) (or (= _let_19 c_0) (= _let_19 c_1)) (or (= _let_18 c_0) (= _let_18 c_1)) (or (= _let_17 c_0) (= _let_17 c_1)) (or (= _let_16 c_0) (= _let_16 c_1)) (or (= _let_15 c_0) (= _let_15 c_1)) (or (= _let_14 c_0) (= _let_14 c_1)) (or (= _let_13 c_0) (= _let_13 c_1)) (or (= _let_12 c_0) (= _let_12 c_1)) (or (= _let_11 c_0) (= _let_11 c_1)) (or (= _let_10 c_0) (= _let_10 c_1)) (or (= _let_9 c_0) (= _let_9 c_1)) (or (= _let_8 c_0) (= _let_8 c_1)) (or (= _let_7 c_0) (= _let_7 c_1)) (or (= _let_6 c_0) (= _let_6 c_1)) (or (= _let_5 c_0) (= _let_5 c_1)) (or (= _let_4 c_0) (= _let_4 c_1)) (or (= _let_3 c_0) (= _let_3 c_1)) (or (= _let_2 c_0) (= _let_2 c_1)) (or (= _let_1 c_0) (= _let_1 c_1)) (or (= c18 c_0) (= c18 c_1)) (or (= c8 c_0) (= c8 c_1))))))))))))))))))))))))))))))))))))))))))))))))))))))))))))))))))))))))))))))))))))))))))))))))))))))))))))
(check-sat)
(exit)
